memory 40 GB

molecule {
0 1
pubchem:butane
}

set basis cc-pvdz
set scf {
    d_convergence 14
}
set ccenergy {
    maxiter 40
    e_convergence 1E-40
}
energy('ccsd')
