memory 2 GB

molecule {
1 2
O
H 1 1.1
H 1 1.1 2 104.0
symmetry c1
}
set reference rohf
set D_CONVERGENCE 14
set e_convergence 14
set mp2_type conv
set scf_type pk
set ccenergy {
    diis false
}
energy('mp2/sto-3g')
