memory 2 GB

molecule {
0 1
O
H 1 1.1
H 1 1.1 2 104.0
symmetry c1
}
set D_CONVERGENCE 14
set e_convergence 14
set ccenergy {
    diis false
}
energy('ccsd/sto-3g')
